p cnf 200 1110
-101 -87 0
-101 75 0
-101 -30 0
-101 -26 0
-101 28 0
-101 95 0
-101 71 0
-101 4 0
-101 -20 0
-101 -35 0
101 87 -75 30 26 -28 -95 -71 -4 20 35 0
-102 -10 0
-102 -47 0
-102 16 0
-102 81 0
-102 -24 0
-102 -56 0
-102 7 0
-102 -77 0
-102 31 0
-102 83 0
102 10 47 -16 -81 24 56 -7 77 -31 -83 0
-103 -32 0
-103 46 0
-103 -90 0
-103 -79 0
-103 80 0
-103 -54 0
-103 -7 0
-103 -89 0
-103 -47 0
-103 -81 0
103 32 -46 90 79 -80 54 7 89 47 81 0
-104 83 0
-104 -22 0
-104 15 0
-104 -87 0
-104 78 0
-104 -51 0
-104 70 0
-104 -88 0
-104 -30 0
-104 18 0
104 -83 22 -15 87 -78 51 -70 88 30 -18 0
-105 18 0
-105 84 0
-105 34 0
-105 20 0
-105 33 0
-105 41 0
-105 97 0
-105 -11 0
-105 24 0
-105 -50 0
105 -18 -84 -34 -20 -33 -41 -97 11 -24 50 0
-106 -13 0
-106 6 0
-106 66 0
-106 -43 0
-106 2 0
-106 -86 0
-106 -60 0
-106 17 0
-106 46 0
-106 -81 0
106 13 -6 -66 43 -2 86 60 -17 -46 81 0
-107 -19 0
-107 45 0
-107 -64 0
-107 62 0
-107 -42 0
-107 78 0
-107 -88 0
-107 -61 0
-107 -31 0
-107 97 0
107 19 -45 64 -62 42 -78 88 61 31 -97 0
-108 74 0
-108 -2 0
-108 7 0
-108 1 0
-108 -96 0
-108 79 0
-108 12 0
-108 77 0
-108 14 0
-108 -95 0
108 -74 2 -7 -1 96 -79 -12 -77 -14 95 0
-109 -37 0
-109 90 0
-109 89 0
-109 -92 0
-109 -54 0
-109 4 0
-109 38 0
-109 -26 0
-109 -74 0
-109 72 0
109 37 -90 -89 92 54 -4 -38 26 74 -72 0
-110 86 0
-110 30 0
-110 10 0
-110 -76 0
-110 6 0
-110 63 0
-110 -8 0
-110 96 0
-110 5 0
-110 -85 0
110 -86 -30 -10 76 -6 -63 8 -96 -5 85 0
101 102 103 104 105 106 107 108 109 110 0
-111 -97 0
-111 -51 0
-111 -92 0
-111 -56 0
-111 -38 0
-111 67 0
-111 -68 0
-111 -25 0
-111 -47 0
-111 95 0
111 97 51 92 56 38 -67 68 25 47 -95 0
-112 -66 0
-112 -37 0
-112 -4 0
-112 11 0
-112 50 0
-112 -43 0
-112 28 0
-112 -79 0
-112 -49 0
-112 -21 0
112 66 37 4 -11 -50 43 -28 79 49 21 0
-113 56 0
-113 -60 0
-113 55 0
-113 43 0
-113 -87 0
-113 46 0
-113 -63 0
-113 -61 0
-113 78 0
-113 -6 0
113 -56 60 -55 -43 87 -46 63 61 -78 6 0
-114 14 0
-114 -58 0
-114 87 0
-114 -23 0
-114 69 0
-114 13 0
-114 56 0
-114 -71 0
-114 22 0
-114 -1 0
114 -14 58 -87 23 -69 -13 -56 71 -22 1 0
-115 83 0
-115 5 0
-115 80 0
-115 -67 0
-115 -40 0
-115 -94 0
-115 -69 0
-115 -96 0
-115 -91 0
-115 45 0
115 -83 -5 -80 67 40 94 69 96 91 -45 0
-116 37 0
-116 57 0
-116 81 0
-116 -92 0
-116 85 0
-116 68 0
-116 -53 0
-116 -14 0
-116 94 0
-116 -70 0
116 -37 -57 -81 92 -85 -68 53 14 -94 70 0
-117 -62 0
-117 93 0
-117 98 0
-117 68 0
-117 -52 0
-117 48 0
-117 19 0
-117 -72 0
-117 -80 0
-117 3 0
117 62 -93 -98 -68 52 -48 -19 72 80 -3 0
-118 5 0
-118 -7 0
-118 65 0
-118 59 0
-118 -14 0
-118 18 0
-118 -3 0
-118 -76 0
-118 93 0
-118 -23 0
118 -5 7 -65 -59 14 -18 3 76 -93 23 0
-119 50 0
-119 -55 0
-119 45 0
-119 -62 0
-119 -77 0
-119 -84 0
-119 72 0
-119 -2 0
-119 -100 0
-119 -18 0
119 -50 55 -45 62 77 84 -72 2 100 18 0
-120 -95 0
-120 79 0
-120 32 0
-120 4 0
-120 -86 0
-120 -12 0
-120 8 0
-120 -35 0
-120 -54 0
-120 -24 0
120 95 -79 -32 -4 86 12 -8 35 54 24 0
111 112 113 114 115 116 117 118 119 120 0
-121 89 0
-121 -7 0
-121 -54 0
-121 -15 0
-121 70 0
-121 80 0
-121 -14 0
-121 -6 0
-121 97 0
-121 50 0
121 -89 7 54 15 -70 -80 14 6 -97 -50 0
-122 -22 0
-122 -84 0
-122 -15 0
-122 -11 0
-122 64 0
-122 1 0
-122 23 0
-122 33 0
-122 -9 0
-122 68 0
122 22 84 15 11 -64 -1 -23 -33 9 -68 0
-123 65 0
-123 -88 0
-123 -64 0
-123 -4 0
-123 37 0
-123 68 0
-123 31 0
-123 3 0
-123 90 0
-123 -48 0
123 -65 88 64 4 -37 -68 -31 -3 -90 48 0
-124 91 0
-124 -48 0
-124 -21 0
-124 36 0
-124 -33 0
-124 26 0
-124 57 0
-124 -28 0
-124 -25 0
-124 -64 0
124 -91 48 21 -36 33 -26 -57 28 25 64 0
-125 -90 0
-125 -79 0
-125 25 0
-125 11 0
-125 28 0
-125 -1 0
-125 -36 0
-125 43 0
-125 83 0
-125 78 0
125 90 79 -25 -11 -28 1 36 -43 -83 -78 0
-126 96 0
-126 60 0
-126 -30 0
-126 -13 0
-126 5 0
-126 36 0
-126 57 0
-126 69 0
-126 54 0
-126 -15 0
126 -96 -60 30 13 -5 -36 -57 -69 -54 15 0
-127 -20 0
-127 100 0
-127 73 0
-127 52 0
-127 -4 0
-127 32 0
-127 -81 0
-127 -75 0
-127 -95 0
-127 -40 0
127 20 -100 -73 -52 4 -32 81 75 95 40 0
-128 17 0
-128 63 0
-128 34 0
-128 25 0
-128 79 0
-128 55 0
-128 96 0
-128 -30 0
-128 80 0
-128 71 0
128 -17 -63 -34 -25 -79 -55 -96 30 -80 -71 0
-129 13 0
-129 86 0
-129 28 0
-129 -85 0
-129 -77 0
-129 -19 0
-129 12 0
-129 50 0
-129 80 0
-129 -74 0
129 -13 -86 -28 85 77 19 -12 -50 -80 74 0
-130 -57 0
-130 -48 0
-130 -89 0
-130 -52 0
-130 -75 0
-130 -47 0
-130 38 0
-130 -8 0
-130 -33 0
-130 -93 0
130 57 48 89 52 75 47 -38 8 33 93 0
121 122 123 124 125 126 127 128 129 130 0
-131 -91 0
-131 -90 0
-131 67 0
-131 88 0
-131 30 0
-131 -78 0
-131 63 0
-131 98 0
-131 -7 0
-131 -82 0
131 91 90 -67 -88 -30 78 -63 -98 7 82 0
-132 10 0
-132 -56 0
-132 -46 0
-132 84 0
-132 -40 0
-132 58 0
-132 36 0
-132 -90 0
-132 74 0
-132 42 0
132 -10 56 46 -84 40 -58 -36 90 -74 -42 0
-133 -31 0
-133 11 0
-133 -57 0
-133 -80 0
-133 -84 0
-133 -73 0
-133 14 0
-133 36 0
-133 -98 0
-133 -78 0
133 31 -11 57 80 84 73 -14 -36 98 78 0
-134 -74 0
-134 -56 0
-134 26 0
-134 -8 0
-134 53 0
-134 -12 0
-134 83 0
-134 -55 0
-134 84 0
-134 -92 0
134 74 56 -26 8 -53 12 -83 55 -84 92 0
-135 -25 0
-135 96 0
-135 61 0
-135 -22 0
-135 -91 0
-135 77 0
-135 99 0
-135 78 0
-135 47 0
-135 85 0
135 25 -96 -61 22 91 -77 -99 -78 -47 -85 0
-136 76 0
-136 -35 0
-136 -98 0
-136 50 0
-136 37 0
-136 -49 0
-136 62 0
-136 30 0
-136 -6 0
-136 59 0
136 -76 35 98 -50 -37 49 -62 -30 6 -59 0
-137 -9 0
-137 -93 0
-137 -95 0
-137 100 0
-137 -85 0
-137 -87 0
-137 -83 0
-137 -99 0
-137 -79 0
-137 -84 0
137 9 93 95 -100 85 87 83 99 79 84 0
-138 26 0
-138 4 0
-138 -98 0
-138 -5 0
-138 76 0
-138 -14 0
-138 -47 0
-138 -46 0
-138 75 0
-138 20 0
138 -26 -4 98 5 -76 14 47 46 -75 -20 0
-139 -64 0
-139 31 0
-139 -71 0
-139 -50 0
-139 -3 0
-139 -16 0
-139 -24 0
-139 -56 0
-139 -46 0
-139 -99 0
139 64 -31 71 50 3 16 24 56 46 99 0
-140 -69 0
-140 27 0
-140 -34 0
-140 -91 0
-140 61 0
-140 32 0
-140 -89 0
-140 81 0
-140 -6 0
-140 14 0
140 69 -27 34 91 -61 -32 89 -81 6 -14 0
131 132 133 134 135 136 137 138 139 140 0
-141 -100 0
-141 64 0
-141 1 0
-141 -41 0
-141 2 0
-141 -31 0
-141 55 0
-141 -36 0
-141 -91 0
-141 24 0
141 100 -64 -1 41 -2 31 -55 36 91 -24 0
-142 74 0
-142 49 0
-142 -95 0
-142 18 0
-142 -56 0
-142 73 0
-142 51 0
-142 -42 0
-142 -27 0
-142 -94 0
142 -74 -49 95 -18 56 -73 -51 42 27 94 0
-143 -32 0
-143 97 0
-143 -84 0
-143 -56 0
-143 -8 0
-143 50 0
-143 -91 0
-143 58 0
-143 -86 0
-143 11 0
143 32 -97 84 56 8 -50 91 -58 86 -11 0
-144 14 0
-144 -60 0
-144 -39 0
-144 70 0
-144 -49 0
-144 -48 0
-144 -13 0
-144 41 0
-144 77 0
-144 2 0
144 -14 60 39 -70 49 48 13 -41 -77 -2 0
-145 1 0
-145 85 0
-145 -47 0
-145 21 0
-145 34 0
-145 -84 0
-145 44 0
-145 14 0
-145 -37 0
-145 88 0
145 -1 -85 47 -21 -34 84 -44 -14 37 -88 0
-146 -36 0
-146 -54 0
-146 -37 0
-146 -33 0
-146 -80 0
-146 45 0
-146 38 0
-146 -19 0
-146 -5 0
-146 -91 0
146 36 54 37 33 80 -45 -38 19 5 91 0
-147 83 0
-147 -2 0
-147 -56 0
-147 -27 0
-147 -45 0
-147 -72 0
-147 -10 0
-147 16 0
-147 23 0
-147 -63 0
147 -83 2 56 27 45 72 10 -16 -23 63 0
-148 28 0
-148 50 0
-148 -18 0
-148 97 0
-148 37 0
-148 99 0
-148 -48 0
-148 -90 0
-148 80 0
-148 24 0
148 -28 -50 18 -97 -37 -99 48 90 -80 -24 0
-149 -10 0
-149 -34 0
-149 89 0
-149 31 0
-149 -8 0
-149 32 0
-149 100 0
-149 92 0
-149 93 0
-149 43 0
149 10 34 -89 -31 8 -32 -100 -92 -93 -43 0
-150 100 0
-150 50 0
-150 30 0
-150 78 0
-150 -59 0
-150 -36 0
-150 -45 0
-150 -69 0
-150 32 0
-150 -70 0
150 -100 -50 -30 -78 59 36 45 69 -32 70 0
141 142 143 144 145 146 147 148 149 150 0
-151 -57 0
-151 -31 0
-151 -25 0
-151 74 0
-151 89 0
-151 29 0
-151 -19 0
-151 46 0
-151 88 0
-151 -9 0
151 57 31 25 -74 -89 -29 19 -46 -88 9 0
-152 55 0
-152 95 0
-152 34 0
-152 -43 0
-152 15 0
-152 25 0
-152 -46 0
-152 61 0
-152 7 0
-152 -11 0
152 -55 -95 -34 43 -15 -25 46 -61 -7 11 0
-153 -32 0
-153 45 0
-153 6 0
-153 100 0
-153 61 0
-153 -29 0
-153 -41 0
-153 -80 0
-153 91 0
-153 -84 0
153 32 -45 -6 -100 -61 29 41 80 -91 84 0
-154 -61 0
-154 -11 0
-154 -19 0
-154 -87 0
-154 99 0
-154 -46 0
-154 -80 0
-154 27 0
-154 -67 0
-154 -54 0
154 61 11 19 87 -99 46 80 -27 67 54 0
-155 3 0
-155 63 0
-155 39 0
-155 70 0
-155 -10 0
-155 11 0
-155 -51 0
-155 -6 0
-155 -79 0
-155 -78 0
155 -3 -63 -39 -70 10 -11 51 6 79 78 0
-156 -13 0
-156 100 0
-156 28 0
-156 -81 0
-156 56 0
-156 -88 0
-156 63 0
-156 31 0
-156 -26 0
-156 -97 0
156 13 -100 -28 81 -56 88 -63 -31 26 97 0
-157 89 0
-157 94 0
-157 31 0
-157 70 0
-157 15 0
-157 16 0
-157 -53 0
-157 -56 0
-157 -77 0
-157 76 0
157 -89 -94 -31 -70 -15 -16 53 56 77 -76 0
-158 44 0
-158 57 0
-158 56 0
-158 -16 0
-158 5 0
-158 59 0
-158 85 0
-158 -63 0
-158 -80 0
-158 -92 0
158 -44 -57 -56 16 -5 -59 -85 63 80 92 0
-159 39 0
-159 2 0
-159 87 0
-159 10 0
-159 59 0
-159 33 0
-159 67 0
-159 49 0
-159 75 0
-159 8 0
159 -39 -2 -87 -10 -59 -33 -67 -49 -75 -8 0
-160 -44 0
-160 -79 0
-160 93 0
-160 55 0
-160 -38 0
-160 68 0
-160 26 0
-160 28 0
-160 -80 0
-160 35 0
160 44 79 -93 -55 38 -68 -26 -28 80 -35 0
151 152 153 154 155 156 157 158 159 160 0
-161 8 0
-161 55 0
-161 -42 0
-161 31 0
-161 -83 0
-161 2 0
-161 93 0
-161 -33 0
-161 -25 0
-161 5 0
161 -8 -55 42 -31 83 -2 -93 33 25 -5 0
-162 89 0
-162 -72 0
-162 91 0
-162 -18 0
-162 -87 0
-162 -20 0
-162 -93 0
-162 31 0
-162 -59 0
-162 -71 0
162 -89 72 -91 18 87 20 93 -31 59 71 0
-163 -62 0
-163 -34 0
-163 26 0
-163 73 0
-163 49 0
-163 82 0
-163 38 0
-163 -9 0
-163 -68 0
-163 57 0
163 62 34 -26 -73 -49 -82 -38 9 68 -57 0
-164 -58 0
-164 54 0
-164 73 0
-164 -6 0
-164 -24 0
-164 -89 0
-164 12 0
-164 50 0
-164 49 0
-164 47 0
164 58 -54 -73 6 24 89 -12 -50 -49 -47 0
-165 -22 0
-165 -52 0
-165 -93 0
-165 37 0
-165 -62 0
-165 3 0
-165 -10 0
-165 78 0
-165 7 0
-165 60 0
165 22 52 93 -37 62 -3 10 -78 -7 -60 0
-166 -47 0
-166 -80 0
-166 -83 0
-166 62 0
-166 35 0
-166 -88 0
-166 7 0
-166 -75 0
-166 -60 0
-166 -25 0
166 47 80 83 -62 -35 88 -7 75 60 25 0
-167 -5 0
-167 98 0
-167 -86 0
-167 -1 0
-167 68 0
-167 -33 0
-167 59 0
-167 -25 0
-167 -16 0
-167 30 0
167 5 -98 86 1 -68 33 -59 25 16 -30 0
-168 -86 0
-168 15 0
-168 69 0
-168 95 0
-168 87 0
-168 -36 0
-168 18 0
-168 75 0
-168 74 0
-168 -9 0
168 86 -15 -69 -95 -87 36 -18 -75 -74 9 0
-169 -32 0
-169 -41 0
-169 33 0
-169 99 0
-169 10 0
-169 -53 0
-169 -28 0
-169 -13 0
-169 -72 0
-169 -8 0
169 32 41 -33 -99 -10 53 28 13 72 8 0
-170 -64 0
-170 86 0
-170 -45 0
-170 -82 0
-170 2 0
-170 -77 0
-170 78 0
-170 52 0
-170 15 0
-170 47 0
170 64 -86 45 82 -2 77 -78 -52 -15 -47 0
161 162 163 164 165 166 167 168 169 170 0
-171 8 0
-171 88 0
-171 -21 0
-171 -49 0
-171 -32 0
-171 53 0
-171 -55 0
-171 82 0
-171 -79 0
-171 1 0
171 -8 -88 21 49 32 -53 55 -82 79 -1 0
-172 8 0
-172 -40 0
-172 -96 0
-172 12 0
-172 38 0
-172 -86 0
-172 -57 0
-172 -25 0
-172 82 0
-172 -9 0
172 -8 40 96 -12 -38 86 57 25 -82 9 0
-173 3 0
-173 47 0
-173 -92 0
-173 -38 0
-173 28 0
-173 -96 0
-173 93 0
-173 37 0
-173 -13 0
-173 98 0
173 -3 -47 92 38 -28 96 -93 -37 13 -98 0
-174 59 0
-174 -2 0
-174 78 0
-174 -52 0
-174 -97 0
-174 88 0
-174 -3 0
-174 83 0
-174 -58 0
-174 86 0
174 -59 2 -78 52 97 -88 3 -83 58 -86 0
-175 71 0
-175 -70 0
-175 84 0
-175 -8 0
-175 -90 0
-175 76 0
-175 -14 0
-175 -36 0
-175 -68 0
-175 31 0
175 -71 70 -84 8 90 -76 14 36 68 -31 0
-176 -28 0
-176 27 0
-176 33 0
-176 64 0
-176 -83 0
-176 11 0
-176 -17 0
-176 75 0
-176 56 0
-176 -44 0
176 28 -27 -33 -64 83 -11 17 -75 -56 44 0
-177 35 0
-177 -10 0
-177 -95 0
-177 52 0
-177 79 0
-177 -83 0
-177 26 0
-177 9 0
-177 41 0
-177 36 0
177 -35 10 95 -52 -79 83 -26 -9 -41 -36 0
-178 -21 0
-178 100 0
-178 -61 0
-178 99 0
-178 33 0
-178 -93 0
-178 91 0
-178 20 0
-178 -59 0
-178 -95 0
178 21 -100 61 -99 -33 93 -91 -20 59 95 0
-179 70 0
-179 64 0
-179 -15 0
-179 -98 0
-179 -35 0
-179 73 0
-179 -99 0
-179 69 0
-179 -12 0
-179 78 0
179 -70 -64 15 98 35 -73 99 -69 12 -78 0
-180 -71 0
-180 -48 0
-180 47 0
-180 -29 0
-180 -24 0
-180 -4 0
-180 14 0
-180 -74 0
-180 -51 0
-180 -39 0
180 71 48 -47 29 24 4 -14 74 51 39 0
171 172 173 174 175 176 177 178 179 180 0
-181 26 0
-181 53 0
-181 -25 0
-181 -69 0
-181 -46 0
-181 -30 0
-181 -23 0
-181 -59 0
-181 -14 0
-181 -85 0
181 -26 -53 25 69 46 30 23 59 14 85 0
-182 79 0
-182 32 0
-182 10 0
-182 -72 0
-182 12 0
-182 -33 0
-182 -20 0
-182 -45 0
-182 98 0
-182 97 0
182 -79 -32 -10 72 -12 33 20 45 -98 -97 0
-183 74 0
-183 -20 0
-183 -83 0
-183 -79 0
-183 -47 0
-183 69 0
-183 -22 0
-183 -43 0
-183 -97 0
-183 -91 0
183 -74 20 83 79 47 -69 22 43 97 91 0
-184 -70 0
-184 -79 0
-184 -63 0
-184 -45 0
-184 -5 0
-184 83 0
-184 -99 0
-184 -94 0
-184 67 0
-184 40 0
184 70 79 63 45 5 -83 99 94 -67 -40 0
-185 44 0
-185 46 0
-185 62 0
-185 6 0
-185 -68 0
-185 -73 0
-185 13 0
-185 -59 0
-185 97 0
-185 61 0
185 -44 -46 -62 -6 68 73 -13 59 -97 -61 0
-186 75 0
-186 76 0
-186 -36 0
-186 81 0
-186 6 0
-186 -83 0
-186 24 0
-186 69 0
-186 50 0
-186 45 0
186 -75 -76 36 -81 -6 83 -24 -69 -50 -45 0
-187 9 0
-187 -70 0
-187 -45 0
-187 63 0
-187 7 0
-187 -81 0
-187 -30 0
-187 -71 0
-187 42 0
-187 41 0
187 -9 70 45 -63 -7 81 30 71 -42 -41 0
-188 -68 0
-188 -34 0
-188 -5 0
-188 -39 0
-188 70 0
-188 -53 0
-188 -29 0
-188 82 0
-188 6 0
-188 89 0
188 68 34 5 39 -70 53 29 -82 -6 -89 0
-189 97 0
-189 77 0
-189 28 0
-189 45 0
-189 64 0
-189 81 0
-189 82 0
-189 -48 0
-189 -24 0
-189 30 0
189 -97 -77 -28 -45 -64 -81 -82 48 24 -30 0
-190 -34 0
-190 -50 0
-190 -63 0
-190 33 0
-190 17 0
-190 -49 0
-190 -86 0
-190 60 0
-190 -56 0
-190 85 0
190 34 50 63 -33 -17 49 86 -60 56 -85 0
181 182 183 184 185 186 187 188 189 190 0
-191 7 0
-191 37 0
-191 -43 0
-191 -12 0
-191 -19 0
-191 -64 0
-191 28 0
-191 34 0
-191 60 0
-191 -35 0
191 -7 -37 43 12 19 64 -28 -34 -60 35 0
-192 -64 0
-192 40 0
-192 16 0
-192 5 0
-192 -61 0
-192 -96 0
-192 -6 0
-192 -51 0
-192 34 0
-192 99 0
192 64 -40 -16 -5 61 96 6 51 -34 -99 0
-193 13 0
-193 -20 0
-193 -53 0
-193 -42 0
-193 17 0
-193 -30 0
-193 -87 0
-193 23 0
-193 4 0
-193 73 0
193 -13 20 53 42 -17 30 87 -23 -4 -73 0
-194 -69 0
-194 -12 0
-194 51 0
-194 -56 0
-194 -86 0
-194 -28 0
-194 71 0
-194 -40 0
-194 -37 0
-194 -66 0
194 69 12 -51 56 86 28 -71 40 37 66 0
-195 -15 0
-195 34 0
-195 45 0
-195 -10 0
-195 65 0
-195 86 0
-195 -77 0
-195 -27 0
-195 46 0
-195 -95 0
195 15 -34 -45 10 -65 -86 77 27 -46 95 0
-196 27 0
-196 -14 0
-196 -8 0
-196 60 0
-196 78 0
-196 99 0
-196 70 0
-196 -59 0
-196 90 0
-196 24 0
196 -27 14 8 -60 -78 -99 -70 59 -90 -24 0
-197 -52 0
-197 73 0
-197 1 0
-197 4 0
-197 -5 0
-197 -98 0
-197 -82 0
-197 81 0
-197 90 0
-197 -67 0
197 52 -73 -1 -4 5 98 82 -81 -90 67 0
-198 -6 0
-198 71 0
-198 -41 0
-198 56 0
-198 -35 0
-198 -66 0
-198 -72 0
-198 54 0
-198 -9 0
-198 -52 0
198 6 -71 41 -56 35 66 72 -54 9 52 0
-199 54 0
-199 24 0
-199 57 0
-199 78 0
-199 75 0
-199 -19 0
-199 -12 0
-199 -42 0
-199 -17 0
-199 -35 0
199 -54 -24 -57 -78 -75 19 12 42 17 35 0
-200 -27 0
-200 91 0
-200 11 0
-200 -85 0
-200 -42 0
-200 -98 0
-200 70 0
-200 48 0
-200 62 0
-200 56 0
200 27 -91 -11 85 42 98 -70 -48 -62 -56 0
191 192 193 194 195 196 197 198 199 200 0
